certificates/rado_a6_c76_N14.cnf
c Rad2 upper bound instance: x1 + 6*x2 - x3 = 76, interval [1,14]
p cnf 14 64
1 3 13 0
-1 -3 -13 0
1 9 14 0
-1 -9 -14 0
2 4 13 0
-2 -4 -13 0
2 10 14 0
-2 -10 -14 0
3 5 13 0
-3 -5 -13 0
3 11 14 0
-3 -11 -14 0
4 6 13 0
-4 -6 -13 0
4 12 14 0
-4 -12 -14 0
1 5 12 0
-1 -5 -12 0
5 7 13 0
-5 -7 -13 0
5 13 14 0
-5 -13 -14 0
2 6 12 0
-2 -6 -12 0
6 8 13 0
-6 -8 -13 0
6 14 0
-6 -14 0
3 7 12 0
-3 -7 -12 0
7 9 13 0
-7 -9 -13 0
4 8 12 0
-4 -8 -12 0
8 10 13 0
-8 -10 -13 0
5 9 12 0
-5 -9 -12 0
9 11 13 0
-9 -11 -13 0
6 10 12 0
-6 -10 -12 0
10 12 13 0
-10 -12 -13 0
1 11 0
-1 -11 0
7 11 12 0
-7 -11 -12 0
11 13 0
-11 -13 0
2 11 12 0
-2 -11 -12 0
8 12 0
-8 -12 0
12 13 14 0
-12 -13 -14 0
3 11 13 0
-3 -11 -13 0
9 12 13 0
-9 -12 -13 0
4 11 14 0
-4 -11 -14 0
10 12 14 0
-10 -12 -14 0
