certificates/rado_a6_c76_N14.drat
-13 -14 0
-14 0
6 0
13 0
-11 0
-4 0
-8 0
1 0
3 0
0
